p cnf 23 11
a 1 2 0
e 3 0
a 4 0
e 5 0
a 6 7 8 0
e 9 10 0
a 11 0
e 12 0
a 13 14 0
e 15 16 17 18 0
a 19 20 0
e 21 22 23 0
7 1 2 0
-6 -13 11 15 -18 0
14 5 22 20 6 0
-13 -23 -10 16 2 0
-3 -9 -4 -19 -23 0
1 -18 -9 -13 -19 0
-7 8 -10 3 0
4 -6 0
-5 11 8 15 -20 0
3 -16 -15 19 0
14 3 -18 8 12 0
